p tw 78 1062
1 20
1 33
1 43
1 47
1 54
1 67
1 2
1 17
1 76
1 35
1 46
1 57
1 44
1 42
1 16
1 15
1 14
1 12
1 11
1 10
1 9
1 8
1 7
1 4
1 3
1 78
1 77
1 68
1 73
1 72
1 71
1 70
1 69
1 66
1 64
1 63
1 62
1 61
1 60
1 59
1 58
1 56
1 55
1 52
1 51
1 50
1 49
1 48
1 45
1 74
1 39
1 5
1 40
1 75
1 65
1 53
1 41
1 29
1 38
1 24
1 13
1 6
1 28
1 27
1 26
1 25
1 23
1 22
1 21
1 19
2 17
2 76
2 35
2 46
2 57
2 4
2 7
2 8
2 9
2 10
2 11
2 6
2 28
2 27
2 26
2 25
2 23
2 22
2 21
2 19
17 76
17 28
17 27
17 26
17 25
17 23
17 22
17 21
17 19
29 65
29 53
29 41
41 65
41 53
53 65
65 75
35 46
35 57
35 6
35 28
35 27
35 26
35 25
35 23
35 22
35 21
35 19
35 11
46 57
46 6
46 28
46 27
46 26
46 25
46 23
46 22
46 21
46 19
46 11
57 4
57 7
57 8
57 9
57 10
57 11
57 3
57 6
57 28
57 27
57 26
57 25
57 23
57 22
57 21
57 19
78 11
78 10
78 9
78 8
78 7
78 4
78 3
3 11
3 10
3 9
3 8
3 7
3 4
4 11
4 10
4 9
4 8
4 7
6 18
6 19
6 21
6 22
6 23
6 25
6 26
6 27
6 28
6 30
6 31
6 32
6 34
6 36
6 37
6 38
6 39
6 40
6 42
6 44
6 45
6 48
6 49
6 50
6 51
6 52
6 55
6 56
6 58
6 59
6 60
6 61
6 62
6 63
6 64
6 66
6 69
6 70
6 71
6 72
6 73
6 74
6 29
6 41
6 53
6 65
6 75
6 7
6 8
6 9
6 10
6 11
6 12
6 14
6 15
6 16
7 11
7 10
7 9
7 8
8 11
8 10
8 9
9 11
9 10
10 11
12 14
14 15
15 16
18 19
18 21
18 22
18 23
18 25
18 26
18 27
18 28
18 30
18 31
18 32
18 34
18 36
18 37
18 38
18 39
18 40
18 42
18 44
18 45
18 48
18 49
18 50
18 51
18 52
18 55
18 56
18 58
18 59
18 60
18 61
18 62
18 63
18 64
18 66
18 69
18 70
18 71
18 72
18 73
18 74
18 29
18 41
18 53
18 65
18 75
19 21
19 22
19 23
19 25
19 26
19 27
19 28
19 30
19 31
19 32
19 34
19 36
19 37
19 38
19 39
19 40
19 42
19 44
19 45
19 48
19 49
19 50
19 51
19 52
19 55
19 56
19 58
19 59
19 60
19 61
19 62
19 63
19 64
19 66
19 69
19 70
19 71
19 72
19 73
19 74
19 29
19 41
19 53
19 65
19 75
20 33
20 43
20 47
20 54
20 67
20 76
20 44
20 42
20 73
20 72
20 71
20 70
20 69
20 66
20 64
20 63
20 62
20 61
20 60
20 59
20 58
20 56
20 55
20 52
20 51
20 50
20 49
20 48
20 45
20 74
20 39
20 40
20 75
20 65
20 53
20 41
20 29
20 38
20 28
20 27
20 26
20 25
20 23
20 22
20 21
21 22
21 23
21 25
21 26
21 27
21 28
21 30
21 31
21 32
21 34
21 36
21 37
21 38
21 39
21 40
21 42
21 44
21 45
21 48
21 49
21 50
21 51
21 52
21 55
21 56
21 58
21 59
21 60
21 61
21 62
21 63
21 64
21 66
21 69
21 70
21 71
21 72
21 73
21 74
21 29
21 41
21 53
21 65
21 75
22 23
22 25
22 26
22 27
22 28
22 30
22 31
22 32
22 34
22 36
22 37
22 38
22 39
22 40
22 42
22 44
22 45
22 48
22 49
22 50
22 51
22 52
22 55
22 56
22 58
22 59
22 60
22 61
22 62
22 63
22 64
22 66
22 69
22 70
22 71
22 72
22 73
22 74
22 29
22 41
22 53
22 65
22 75
23 25
23 26
23 27
23 28
23 30
23 31
23 32
23 34
23 36
23 37
23 38
23 39
23 40
23 42
23 44
23 45
23 48
23 49
23 50
23 51
23 52
23 55
23 56
23 58
23 59
23 60
23 61
23 62
23 63
23 64
23 66
23 69
23 70
23 71
23 72
23 73
23 74
23 29
23 41
23 53
23 65
23 75
25 26
25 27
25 28
25 30
25 31
25 32
25 34
25 36
25 37
25 38
25 39
25 40
25 42
25 44
25 45
25 48
25 49
25 50
25 51
25 52
25 55
25 56
25 58
25 59
25 60
25 61
25 62
25 63
25 64
25 66
25 69
25 70
25 71
25 72
25 73
25 74
25 29
25 41
25 53
25 65
25 75
26 27
26 28
26 30
26 31
26 32
26 34
26 36
26 37
26 38
26 39
26 40
26 42
26 44
26 45
26 48
26 49
26 50
26 51
26 52
26 55
26 56
26 58
26 59
26 60
26 61
26 62
26 63
26 64
26 66
26 69
26 70
26 71
26 72
26 73
26 74
26 29
26 41
26 53
26 65
26 75
27 28
27 30
27 31
27 32
27 34
27 36
27 37
27 38
27 39
27 40
27 42
27 44
27 45
27 48
27 49
27 50
27 51
27 52
27 55
27 56
27 58
27 59
27 60
27 61
27 62
27 63
27 64
27 66
27 69
27 70
27 71
27 72
27 73
27 74
27 29
27 41
27 53
27 65
27 75
28 30
28 31
28 32
28 34
28 36
28 37
28 38
28 39
28 40
28 42
28 44
28 45
28 48
28 49
28 50
28 51
28 52
28 55
28 56
28 58
28 59
28 60
28 61
28 62
28 63
28 64
28 66
28 69
28 70
28 71
28 72
28 73
28 74
28 29
28 41
28 53
28 65
28 75
30 31
30 32
30 34
30 36
30 37
30 38
30 39
30 40
30 42
30 44
30 45
30 48
30 49
30 50
30 51
30 52
30 55
30 56
30 58
30 59
30 60
30 61
30 62
30 63
30 64
30 66
30 69
30 70
30 71
30 72
30 73
30 74
30 41
30 53
30 65
30 75
31 32
31 34
31 36
31 37
31 38
31 39
31 40
31 42
31 44
31 45
31 48
31 49
31 50
31 51
31 52
31 55
31 56
31 58
31 59
31 60
31 61
31 62
31 63
31 64
31 66
31 69
31 70
31 71
31 72
31 73
31 74
31 41
31 53
31 65
31 75
32 34
32 36
32 37
32 38
32 39
32 40
32 42
32 44
32 45
32 48
32 49
32 50
32 51
32 52
32 55
32 56
32 58
32 59
32 60
32 61
32 62
32 63
32 64
32 66
32 69
32 70
32 71
32 72
32 73
32 74
32 41
32 53
32 65
32 75
33 43
33 47
33 54
33 67
33 76
33 44
34 36
34 37
34 38
34 39
34 40
34 42
34 44
34 45
34 48
34 49
34 50
34 51
34 52
34 55
34 56
34 58
34 59
34 60
34 61
34 62
34 63
34 64
34 66
34 69
34 70
34 71
34 72
34 73
34 74
34 41
34 53
34 65
34 75
36 37
36 38
36 39
36 40
36 42
36 44
36 45
36 48
36 49
36 50
36 51
36 52
36 55
36 56
36 58
36 59
36 60
36 61
36 62
36 63
36 64
36 66
36 69
36 70
36 71
36 72
36 73
36 74
36 41
36 53
36 65
36 75
37 38
37 39
37 40
37 42
37 44
37 45
37 48
37 49
37 50
37 51
37 52
37 55
37 56
37 58
37 59
37 60
37 61
37 62
37 63
37 64
37 66
37 69
37 70
37 71
37 72
37 73
37 74
37 41
37 53
37 65
37 75
38 73
38 72
38 71
38 70
38 69
38 66
38 62
38 61
38 59
38 48
38 44
39 73
39 72
39 71
39 70
39 69
39 66
39 62
39 61
39 59
39 48
39 44
40 73
40 72
40 71
40 70
40 69
40 66
40 62
40 61
40 59
40 48
40 44
43 47
43 54
43 67
43 76
44 73
44 72
44 71
44 70
44 69
44 66
44 64
44 63
44 62
44 61
44 60
44 59
44 58
44 56
44 55
44 52
44 51
44 50
44 49
44 48
44 45
44 74
44 75
44 65
44 53
45 49
45 48
47 54
47 67
47 76
48 73
48 72
48 71
48 70
48 69
48 66
48 64
48 63
48 62
48 61
48 60
48 59
48 58
48 56
48 55
48 52
48 51
48 50
48 49
48 74
48 75
48 65
48 53
50 56
50 55
50 52
50 51
51 59
51 58
51 56
51 55
51 52
52 60
52 59
52 58
52 56
52 55
54 67
54 76
55 61
55 60
55 59
55 58
55 56
56 63
56 62
56 61
56 60
56 59
56 58
58 66
58 64
58 63
58 62
58 61
58 60
58 59
59 73
59 72
59 71
59 70
59 69
59 66
59 64
59 63
59 62
59 61
59 60
59 74
59 75
59 65
60 62
60 61
61 73
61 72
61 71
61 70
61 69
61 66
61 64
61 63
61 62
61 74
61 75
61 65
62 73
62 72
62 71
62 70
62 69
62 66
62 64
62 63
62 74
62 75
62 65
63 70
63 69
63 66
63 64
64 72
64 71
64 70
64 69
64 66
66 73
66 72
66 71
66 70
66 69
66 74
66 75
67 76
69 73
69 72
69 71
69 70
69 74
69 75
70 73
70 72
70 71
70 74
70 75
71 73
71 72
71 74
71 75
72 73
72 74
72 75
73 74
73 75
